ilp_joint/output/condensation_ilp.lp
Maximize
  0.0163095001958281 Z_217_0_0 + 0.0170516536135058 Z_217_0_1
   + 0.0187392926624329 Z_217_0_2 + 0.7598989707767431 Z_217_0_3
   + 0.00744320016780733 Z_271_0_0 + 0.2069953904455859 Z_271_0_1
   + 0.0129351642468385 Z_271_0_2 + 0.0267326480808518 Z_271_0_3
   + 0.00864055543966761 Z_461_2_0 + 0.0179226338105628 Z_461_2_1
   + 0.8321605802366132 Z_461_2_2 + 0.0320518120147088 Z_461_2_3
   + 0.8738219746888333 Z_461_1_0 + 0.0122219491086012 Z_461_1_1
   + 0.00424997724786279 Z_461_1_2 + 0.2397390159375692 Z_461_1_3
   + 0.1582290039729141 Z_461_0_0 + 0.1053077519266623 Z_461_0_1
   + 0.00542045168476093 Z_461_0_2 + 0.740922737377103 Z_461_0_3
   + 0.0306415100136611 Z_280_0_0 + 0.7269981875418522 Z_280_0_1
   + 0.0198360332670036 Z_280_0_2 + 0.0527593390171293 Z_280_0_3
   + 0.0143459984502087 Z_485_0_0 + 0.8293311948906985 Z_485_0_1
   + 0.00996854366453195 Z_485_0_2 + 0.0612844301620319 Z_485_0_3
   + 0.0473322983866299 Z_138_0_0 + 0.1149694905926093 Z_138_0_1
   + 0.0318853481121799 Z_138_0_2 + 0.047941887364096 Z_138_0_3
   + 0.106569418805078 Z_175_0_0 + 0.8357593081189557 Z_175_0_1
   + 0.00345377652021077 Z_175_0_2 + 0.0398260093469604 Z_175_0_3
   + 0.00245557718117995 Z_109_4_0 + 0.0482732138810263 Z_109_4_1
   + 0.1463566157368724 Z_109_4_2 + 0.0632000854639299 Z_109_4_3
   + 0.0274684726164493 Z_109_2_0 + 0.0387505350627476 Z_109_2_1
   + 0.0131019408042031 Z_109_2_2 + 0.0296129852280281 Z_109_2_3
   + 0.0107793552155414 Z_109_1_0 + 0.0244539686060601 Z_109_1_1
   + 0.0265751489652657 Z_109_1_2 + 0.0272937945901129 Z_109_1_3
   + 0.1318956726007785 Z_109_5_0 + 0.2632941037016311 Z_109_5_1
   + 0.0260128558485927 Z_109_5_2 + 0.0830045572507092 Z_109_5_3
   + 0.1989722402647447 Z_109_0_0 + 0.172807569203431 Z_109_0_1
   + 0.0129479429063094 Z_109_0_2 + 0.0686789629120216 Z_109_0_3
   + 0.00245557718117995 Z_109_3_0 + 0.0482732138810263 Z_109_3_1
   + 0.1463566157368724 Z_109_3_2 + 0.0632000854639299 Z_109_3_3
   + 0.0637138396046732 Z_548_6_0 + 0.0403982003117348 Z_548_6_1
   + 0.0255297172513339 Z_548_6_2 + 0.1169437124085515 Z_548_6_3
   + 0.0163304859323105 Z_548_0_0 + 0.0813416023110407 Z_548_0_1
   + 0.146803122020205 Z_548_0_2 + 0.0636700434144313 Z_548_0_3
   + 0.0235101223587742 Z_548_1_0 + 0.1361890062872481 Z_548_1_1
   + 0.0127715402943365 Z_548_1_2 + 0.0227134058155348 Z_548_1_3
   + 0.0271564227897654 Z_126_0_0 + 0.7950026019721331 Z_126_0_1
   + 0.015486786169116 Z_126_0_2 + 0.2729294426601577 Z_126_0_3 + [
   0.0510905881847541 Z_217_0_0 * Z_271_0_0
   + 0.00177777777777778 Z_217_0_0 * Z_461_2_0
   + 0.0645971467326987 Z_217_0_0 * Z_280_0_0
   + 0.0548080664810829 Z_217_0_0 * Z_485_0_0
   + 0.00115646624262319 Z_217_0_0 * Z_138_0_0
   + 2.1197131759056318e-04 Z_217_0_0 * Z_109_4_0
   + 2.282654470515029e-04 Z_217_0_0 * Z_109_5_0
   + 4.4303055451820644e-04 Z_217_0_0 * Z_109_3_0
   + 4.8274286441285486e-04 Z_217_0_0 * Z_548_0_0
   + 0.0693502739364788 Z_217_0_0 * Z_548_1_0
   + 9.85024e-07 Z_217_0_0 * Z_126_0_0
   + 0.0510905881847541 Z_217_0_1 * Z_271_0_1
   + 0.00177777777777778 Z_217_0_1 * Z_461_2_1
   + 0.0645971467326987 Z_217_0_1 * Z_280_0_1
   + 0.0548080664810829 Z_217_0_1 * Z_485_0_1
   + 0.00115646624262319 Z_217_0_1 * Z_138_0_1
   + 2.1197131759056318e-04 Z_217_0_1 * Z_109_4_1
   + 2.282654470515029e-04 Z_217_0_1 * Z_109_5_1
   + 4.4303055451820644e-04 Z_217_0_1 * Z_109_3_1
   + 4.8274286441285486e-04 Z_217_0_1 * Z_548_0_1
   + 0.0693502739364788 Z_217_0_1 * Z_548_1_1
   + 9.85024e-07 Z_217_0_1 * Z_126_0_1
   + 0.0510905881847541 Z_217_0_2 * Z_271_0_2
   + 0.00177777777777778 Z_217_0_2 * Z_461_2_2
   + 0.0645971467326987 Z_217_0_2 * Z_280_0_2
   + 0.0548080664810829 Z_217_0_2 * Z_485_0_2
   + 0.00115646624262319 Z_217_0_2 * Z_138_0_2
   + 2.1197131759056318e-04 Z_217_0_2 * Z_109_4_2
   + 2.282654470515029e-04 Z_217_0_2 * Z_109_5_2
   + 4.4303055451820644e-04 Z_217_0_2 * Z_109_3_2
   + 4.8274286441285486e-04 Z_217_0_2 * Z_548_0_2
   + 0.0693502739364788 Z_217_0_2 * Z_548_1_2
   + 9.85024e-07 Z_217_0_2 * Z_126_0_2
   + 0.0510905881847541 Z_217_0_3 * Z_271_0_3
   + 0.00177777777777778 Z_217_0_3 * Z_461_2_3
   + 0.0645971467326987 Z_217_0_3 * Z_280_0_3
   + 0.0548080664810829 Z_217_0_3 * Z_485_0_3
   + 0.00115646624262319 Z_217_0_3 * Z_138_0_3
   + 2.1197131759056318e-04 Z_217_0_3 * Z_109_4_3
   + 2.282654470515029e-04 Z_217_0_3 * Z_109_5_3
   + 4.4303055451820644e-04 Z_217_0_3 * Z_109_3_3
   + 4.8274286441285486e-04 Z_217_0_3 * Z_548_0_3
   + 0.0693502739364788 Z_217_0_3 * Z_548_1_3
   + 9.85024e-07 Z_217_0_3 * Z_126_0_3
   + 0.0645971467326987 Z_271_0_0 * Z_280_0_0
   + 0.0915701944519917 Z_271_0_0 * Z_485_0_0
   + 0.0240943684900974 Z_271_0_0 * Z_138_0_0
   + 0.0699597314624323 Z_271_0_0 * Z_548_1_0
   + 0.0645971467326987 Z_271_0_1 * Z_280_0_1
   + 0.0915701944519917 Z_271_0_1 * Z_485_0_1
   + 0.0240943684900974 Z_271_0_1 * Z_138_0_1
   + 0.0699597314624323 Z_271_0_1 * Z_548_1_1
   + 0.0645971467326987 Z_271_0_2 * Z_280_0_2
   + 0.0915701944519917 Z_271_0_2 * Z_485_0_2
   + 0.0240943684900974 Z_271_0_2 * Z_138_0_2
   + 0.0699597314624323 Z_271_0_2 * Z_548_1_2
   + 0.0645971467326987 Z_271_0_3 * Z_280_0_3
   + 0.0915701944519917 Z_271_0_3 * Z_485_0_3
   + 0.0240943684900974 Z_271_0_3 * Z_138_0_3
   + 0.0699597314624323 Z_271_0_3 * Z_548_1_3
   + 0.0167269558920885 Z_461_2_0 * Z_138_0_0 + 0.036 Z_461_2_0 * Z_109_5_0
   + 8.2644628099173541e-04 Z_461_2_0 * Z_109_0_0
   + 0.036 Z_461_2_0 * Z_109_3_0 + 2.56e-05 Z_461_2_0 * Z_548_0_0
   + 2.56e-05 Z_461_2_0 * Z_548_1_0
   + 0.0167269558920885 Z_461_2_1 * Z_138_0_1 + 0.036 Z_461_2_1 * Z_109_5_1
   + 8.2644628099173541e-04 Z_461_2_1 * Z_109_0_1
   + 0.036 Z_461_2_1 * Z_109_3_1 + 2.56e-05 Z_461_2_1 * Z_548_0_1
   + 2.56e-05 Z_461_2_1 * Z_548_1_1
   + 0.0167269558920885 Z_461_2_2 * Z_138_0_2 + 0.036 Z_461_2_2 * Z_109_5_2
   + 8.2644628099173541e-04 Z_461_2_2 * Z_109_0_2
   + 0.036 Z_461_2_2 * Z_109_3_2 + 2.56e-05 Z_461_2_2 * Z_548_0_2
   + 2.56e-05 Z_461_2_2 * Z_548_1_2
   + 0.0167269558920885 Z_461_2_3 * Z_138_0_3 + 0.036 Z_461_2_3 * Z_109_5_3
   + 8.2644628099173541e-04 Z_461_2_3 * Z_109_0_3
   + 0.036 Z_461_2_3 * Z_109_3_3 + 2.56e-05 Z_461_2_3 * Z_548_0_3
   + 2.56e-05 Z_461_2_3 * Z_548_1_3 + 3.62172e-05 Z_461_1_0 * Z_485_0_0
   + 0.0132974191545175 Z_461_1_0 * Z_138_0_0
   + 3.62172e-05 Z_461_1_1 * Z_485_0_1
   + 0.0132974191545175 Z_461_1_1 * Z_138_0_1
   + 3.62172e-05 Z_461_1_2 * Z_485_0_2
   + 0.0132974191545175 Z_461_1_2 * Z_138_0_2
   + 3.62172e-05 Z_461_1_3 * Z_485_0_3
   + 0.0132974191545175 Z_461_1_3 * Z_138_0_3
   + 0.0351725343905581 Z_461_0_0 * Z_109_0_0
   + 0.0351725343905581 Z_461_0_0 * Z_109_3_0
   + 0.0351725343905581 Z_461_0_1 * Z_109_0_1
   + 0.0351725343905581 Z_461_0_1 * Z_109_3_1
   + 0.0351725343905581 Z_461_0_2 * Z_109_0_2
   + 0.0351725343905581 Z_461_0_2 * Z_109_3_2
   + 0.0351725343905581 Z_461_0_3 * Z_109_0_3
   + 0.0351725343905581 Z_461_0_3 * Z_109_3_3
   + 0.0645971467326987 Z_280_0_0 * Z_485_0_0
   + 0.1323624485713293 Z_280_0_0 * Z_548_1_0
   + 0.0645971467326987 Z_280_0_1 * Z_485_0_1
   + 0.1323624485713293 Z_280_0_1 * Z_548_1_1
   + 0.0645971467326987 Z_280_0_2 * Z_485_0_2
   + 0.1323624485713293 Z_280_0_2 * Z_548_1_2
   + 0.0645971467326987 Z_280_0_3 * Z_485_0_3
   + 0.1323624485713293 Z_280_0_3 * Z_548_1_3
   + 0.00716857244333475 Z_485_0_0 * Z_138_0_0
   + 0.1920571075587241 Z_485_0_0 * Z_175_0_0
   + 0.0705837251167112 Z_485_0_0 * Z_548_1_0
   + 0.0001855 Z_485_0_0 * Z_126_0_0
   + 0.00716857244333475 Z_485_0_1 * Z_138_0_1
   + 0.1920571075587241 Z_485_0_1 * Z_175_0_1
   + 0.0705837251167112 Z_485_0_1 * Z_548_1_1
   + 0.0001855 Z_485_0_1 * Z_126_0_1
   + 0.00716857244333475 Z_485_0_2 * Z_138_0_2
   + 0.1920571075587241 Z_485_0_2 * Z_175_0_2
   + 0.0705837251167112 Z_485_0_2 * Z_548_1_2
   + 0.0001855 Z_485_0_2 * Z_126_0_2
   + 0.00716857244333475 Z_485_0_3 * Z_138_0_3
   + 0.1920571075587241 Z_485_0_3 * Z_175_0_3
   + 0.0705837251167112 Z_485_0_3 * Z_548_1_3
   + 0.0001855 Z_485_0_3 * Z_126_0_3
   + 0.00119607559359786 Z_138_0_0 * Z_109_4_0
   + 0.0137636590912027 Z_138_0_0 * Z_109_5_0
   + 0.0137636590912027 Z_138_0_0 * Z_109_3_0
   + 0.00590166039460642 Z_138_0_0 * Z_548_0_0
   + 0.00716857244333475 Z_138_0_0 * Z_548_1_0
   + 0.00271472565901434 Z_138_0_0 * Z_126_0_0
   + 0.00119607559359786 Z_138_0_1 * Z_109_4_1
   + 0.0137636590912027 Z_138_0_1 * Z_109_5_1
   + 0.0137636590912027 Z_138_0_1 * Z_109_3_1
   + 0.00590166039460642 Z_138_0_1 * Z_548_0_1
   + 0.00716857244333475 Z_138_0_1 * Z_548_1_1
   + 0.00271472565901434 Z_138_0_1 * Z_126_0_1
   + 0.00119607559359786 Z_138_0_2 * Z_109_4_2
   + 0.0137636590912027 Z_138_0_2 * Z_109_5_2
   + 0.0137636590912027 Z_138_0_2 * Z_109_3_2
   + 0.00590166039460642 Z_138_0_2 * Z_548_0_2
   + 0.00716857244333475 Z_138_0_2 * Z_548_1_2
   + 0.00271472565901434 Z_138_0_2 * Z_126_0_2
   + 0.00119607559359786 Z_138_0_3 * Z_109_4_3
   + 0.0137636590912027 Z_138_0_3 * Z_109_5_3
   + 0.0137636590912027 Z_138_0_3 * Z_109_3_3
   + 0.00590166039460642 Z_138_0_3 * Z_548_0_3
   + 0.00716857244333475 Z_138_0_3 * Z_548_1_3
   + 0.00271472565901434 Z_138_0_3 * Z_126_0_3
   + 9.70279e-10 Z_109_4_0 * Z_126_0_0 + 9.70279e-10 Z_109_4_1 * Z_126_0_1
   + 9.70279e-10 Z_109_4_2 * Z_126_0_2 + 9.70279e-10 Z_109_4_3 * Z_126_0_3
   + 0.4 Z_109_2_0 * Z_548_1_0 + 0.4 Z_109_2_1 * Z_548_1_1
   + 0.4 Z_109_2_2 * Z_548_1_2 + 0.4 Z_109_2_3 * Z_548_1_3
   + 0.00215808447512422 Z_109_5_0 * Z_548_6_0
   + 0.00215808447512422 Z_109_5_1 * Z_548_6_1
   + 0.00215808447512422 Z_109_5_2 * Z_548_6_2
   + 0.00215808447512422 Z_109_5_3 * Z_548_6_3
   + 0.00121892885601394 Z_109_3_0 * Z_548_6_0
   + 1.61195e-10 Z_109_3_0 * Z_126_0_0
   + 0.00121892885601394 Z_109_3_1 * Z_548_6_1
   + 1.61195e-10 Z_109_3_1 * Z_126_0_1
   + 0.00121892885601394 Z_109_3_2 * Z_548_6_2
   + 1.61195e-10 Z_109_3_2 * Z_126_0_2
   + 0.00121892885601394 Z_109_3_3 * Z_548_6_3
   + 1.61195e-10 Z_109_3_3 * Z_126_0_3 + 5.23985e-06 Z_548_1_0 * Z_126_0_0
   + 5.23985e-06 Z_548_1_1 * Z_126_0_1 + 5.23985e-06 Z_548_1_2 * Z_126_0_2
   + 5.23985e-06 Z_548_1_3 * Z_126_0_3 ] / 2 
Subject To
 constraint1_2170: Z_217_0_0 + Z_217_0_1 + Z_217_0_2 + Z_217_0_3 <= 1
 constraint1_2710: Z_271_0_0 + Z_271_0_1 + Z_271_0_2 + Z_271_0_3 <= 1
 constraint1_4612: Z_461_2_0 + Z_461_2_1 + Z_461_2_2 + Z_461_2_3 <= 1
 constraint1_4611: Z_461_1_0 + Z_461_1_1 + Z_461_1_2 + Z_461_1_3 <= 1
 constraint1_4610: Z_461_0_0 + Z_461_0_1 + Z_461_0_2 + Z_461_0_3 <= 1
 constraint1_2800: Z_280_0_0 + Z_280_0_1 + Z_280_0_2 + Z_280_0_3 <= 1
 constraint1_4850: Z_485_0_0 + Z_485_0_1 + Z_485_0_2 + Z_485_0_3 <= 1
 constraint1_1380: Z_138_0_0 + Z_138_0_1 + Z_138_0_2 + Z_138_0_3 <= 1
 constraint1_1750: Z_175_0_0 + Z_175_0_1 + Z_175_0_2 + Z_175_0_3 <= 1
 constraint1_1094: Z_109_4_0 + Z_109_4_1 + Z_109_4_2 + Z_109_4_3 <= 1
 constraint1_1092: Z_109_2_0 + Z_109_2_1 + Z_109_2_2 + Z_109_2_3 <= 1
 constraint1_1091: Z_109_1_0 + Z_109_1_1 + Z_109_1_2 + Z_109_1_3 <= 1
 constraint1_1095: Z_109_5_0 + Z_109_5_1 + Z_109_5_2 + Z_109_5_3 <= 1
 constraint1_1090: Z_109_0_0 + Z_109_0_1 + Z_109_0_2 + Z_109_0_3 <= 1
 constraint1_1093: Z_109_3_0 + Z_109_3_1 + Z_109_3_2 + Z_109_3_3 <= 1
 constraint1_5486: Z_548_6_0 + Z_548_6_1 + Z_548_6_2 + Z_548_6_3 <= 1
 constraint1_5480: Z_548_0_0 + Z_548_0_1 + Z_548_0_2 + Z_548_0_3 <= 1
 constraint1_5481: Z_548_1_0 + Z_548_1_1 + Z_548_1_2 + Z_548_1_3 <= 1
 constraint1_1260: Z_126_0_0 + Z_126_0_1 + Z_126_0_2 + Z_126_0_3 <= 1
 constraint2_2170: Z_217_0_0 <= 1
 constraint2_2171: Z_217_0_1 <= 1
 constraint2_2172: Z_217_0_2 <= 1
 constraint2_2173: Z_217_0_3 <= 1
 constraint2_2710: Z_271_0_0 <= 1
 constraint2_2711: Z_271_0_1 <= 1
 constraint2_2712: Z_271_0_2 <= 1
 constraint2_2713: Z_271_0_3 <= 1
 constraint2_4610: Z_461_2_0 + Z_461_1_0 + Z_461_0_0 <= 1
 constraint2_4611: Z_461_2_1 + Z_461_1_1 + Z_461_0_1 <= 1
 constraint2_4612: Z_461_2_2 + Z_461_1_2 + Z_461_0_2 <= 1
 constraint2_4613: Z_461_2_3 + Z_461_1_3 + Z_461_0_3 <= 1
 constraint2_2800: Z_280_0_0 <= 1
 constraint2_2801: Z_280_0_1 <= 1
 constraint2_2802: Z_280_0_2 <= 1
 constraint2_2803: Z_280_0_3 <= 1
 constraint2_4850: Z_485_0_0 <= 1
 constraint2_4851: Z_485_0_1 <= 1
 constraint2_4852: Z_485_0_2 <= 1
 constraint2_4853: Z_485_0_3 <= 1
 constraint2_1380: Z_138_0_0 <= 1
 constraint2_1381: Z_138_0_1 <= 1
 constraint2_1382: Z_138_0_2 <= 1
 constraint2_1383: Z_138_0_3 <= 1
 constraint2_1750: Z_175_0_0 <= 1
 constraint2_1751: Z_175_0_1 <= 1
 constraint2_1752: Z_175_0_2 <= 1
 constraint2_1753: Z_175_0_3 <= 1
 constraint2_1090: Z_109_4_0 + Z_109_2_0 + Z_109_1_0 + Z_109_5_0
   + Z_109_0_0 + Z_109_3_0 <= 1
 constraint2_1091: Z_109_4_1 + Z_109_2_1 + Z_109_1_1 + Z_109_5_1
   + Z_109_0_1 + Z_109_3_1 <= 1
 constraint2_1092: Z_109_4_2 + Z_109_2_2 + Z_109_1_2 + Z_109_5_2
   + Z_109_0_2 + Z_109_3_2 <= 1
 constraint2_1093: Z_109_4_3 + Z_109_2_3 + Z_109_1_3 + Z_109_5_3
   + Z_109_0_3 + Z_109_3_3 <= 1
 constraint2_5480: Z_548_6_0 + Z_548_0_0 + Z_548_1_0 <= 1
 constraint2_5481: Z_548_6_1 + Z_548_0_1 + Z_548_1_1 <= 1
 constraint2_5482: Z_548_6_2 + Z_548_0_2 + Z_548_1_2 <= 1
 constraint2_5483: Z_548_6_3 + Z_548_0_3 + Z_548_1_3 <= 1
 constraint2_1260: Z_126_0_0 <= 1
 constraint2_1261: Z_126_0_1 <= 1
 constraint2_1262: Z_126_0_2 <= 1
 constraint2_1263: Z_126_0_3 <= 1
Bounds
Binaries
 Z_217_0_0 Z_217_0_1 Z_217_0_2 Z_217_0_3 Z_271_0_0 Z_271_0_1 Z_271_0_2
 Z_271_0_3 Z_461_2_0 Z_461_2_1 Z_461_2_2 Z_461_2_3 Z_461_1_0 Z_461_1_1
 Z_461_1_2 Z_461_1_3 Z_461_0_0 Z_461_0_1 Z_461_0_2 Z_461_0_3 Z_280_0_0
 Z_280_0_1 Z_280_0_2 Z_280_0_3 Z_485_0_0 Z_485_0_1 Z_485_0_2 Z_485_0_3
 Z_138_0_0 Z_138_0_1 Z_138_0_2 Z_138_0_3 Z_175_0_0 Z_175_0_1 Z_175_0_2
 Z_175_0_3 Z_109_4_0 Z_109_4_1 Z_109_4_2 Z_109_4_3 Z_109_2_0 Z_109_2_1
 Z_109_2_2 Z_109_2_3 Z_109_1_0 Z_109_1_1 Z_109_1_2 Z_109_1_3 Z_109_5_0
 Z_109_5_1 Z_109_5_2 Z_109_5_3 Z_109_0_0 Z_109_0_1 Z_109_0_2 Z_109_0_3
 Z_109_3_0 Z_109_3_1 Z_109_3_2 Z_109_3_3 Z_548_6_0 Z_548_6_1 Z_548_6_2
 Z_548_6_3 Z_548_0_0 Z_548_0_1 Z_548_0_2 Z_548_0_3 Z_548_1_0 Z_548_1_1
 Z_548_1_2 Z_548_1_3 Z_126_0_0 Z_126_0_1 Z_126_0_2 Z_126_0_3
End
