ilp_joint/output/condensation_ilp.mps
NAME condensation_srl_ilp
* Max problem is converted into Min one
ROWS
 N  OBJ
 L  constraint1_2170
 L  constraint1_2710
 L  constraint1_4612
 L  constraint1_4611
 L  constraint1_4610
 L  constraint1_2800
 L  constraint1_4850
 L  constraint1_1380
 L  constraint1_1750
 L  constraint1_1094
 L  constraint1_1092
 L  constraint1_1091
 L  constraint1_1095
 L  constraint1_1090
 L  constraint1_1093
 L  constraint1_5486
 L  constraint1_5480
 L  constraint1_5481
 L  constraint1_1260
 L  constraint2_2170
 L  constraint2_2171
 L  constraint2_2172
 L  constraint2_2173
 L  constraint2_2710
 L  constraint2_2711
 L  constraint2_2712
 L  constraint2_2713
 L  constraint2_4610
 L  constraint2_4611
 L  constraint2_4612
 L  constraint2_4613
 L  constraint2_2800
 L  constraint2_2801
 L  constraint2_2802
 L  constraint2_2803
 L  constraint2_4850
 L  constraint2_4851
 L  constraint2_4852
 L  constraint2_4853
 L  constraint2_1380
 L  constraint2_1381
 L  constraint2_1382
 L  constraint2_1383
 L  constraint2_1750
 L  constraint2_1751
 L  constraint2_1752
 L  constraint2_1753
 L  constraint2_1090
 L  constraint2_1091
 L  constraint2_1092
 L  constraint2_1093
 L  constraint2_5480
 L  constraint2_5481
 L  constraint2_5482
 L  constraint2_5483
 L  constraint2_1260
 L  constraint2_1261
 L  constraint2_1262
 L  constraint2_1263
COLUMNS
    MARKER    'MARKER'                 'INTORG'
    Z_217_0_0  OBJ       -1.6309500195828087e-02
    Z_217_0_0  constraint1_2170  1
    Z_217_0_0  constraint2_2170  1
    Z_217_0_1  OBJ       -1.7051653613505812e-02
    Z_217_0_1  constraint1_2170  1
    Z_217_0_1  constraint2_2171  1
    Z_217_0_2  OBJ       -1.8739292662432950e-02
    Z_217_0_2  constraint1_2170  1
    Z_217_0_2  constraint2_2172  1
    Z_217_0_3  OBJ       -7.5989897077674307e-01
    Z_217_0_3  constraint1_2170  1
    Z_217_0_3  constraint2_2173  1
    Z_271_0_0  OBJ       -7.4432001678073293e-03
    Z_271_0_0  constraint1_2710  1
    Z_271_0_0  constraint2_2710  1
    Z_271_0_1  OBJ       -2.0699539044558593e-01
    Z_271_0_1  constraint1_2710  1
    Z_271_0_1  constraint2_2711  1
    Z_271_0_2  OBJ       -1.2935164246838538e-02
    Z_271_0_2  constraint1_2710  1
    Z_271_0_2  constraint2_2712  1
    Z_271_0_3  OBJ       -2.6732648080851806e-02
    Z_271_0_3  constraint1_2710  1
    Z_271_0_3  constraint2_2713  1
    Z_461_2_0  OBJ       -8.6405554396676073e-03
    Z_461_2_0  constraint1_4612  1
    Z_461_2_0  constraint2_4610  1
    Z_461_2_1  OBJ       -1.7922633810562839e-02
    Z_461_2_1  constraint1_4612  1
    Z_461_2_1  constraint2_4611  1
    Z_461_2_2  OBJ       -8.3216058023661321e-01
    Z_461_2_2  constraint1_4612  1
    Z_461_2_2  constraint2_4612  1
    Z_461_2_3  OBJ       -3.2051812014708775e-02
    Z_461_2_3  constraint1_4612  1
    Z_461_2_3  constraint2_4613  1
    Z_461_1_0  OBJ       -8.7382197468883327e-01
    Z_461_1_0  constraint1_4611  1
    Z_461_1_0  constraint2_4610  1
    Z_461_1_1  OBJ       -1.2221949108601238e-02
    Z_461_1_1  constraint1_4611  1
    Z_461_1_1  constraint2_4611  1
    Z_461_1_2  OBJ       -4.2499772478627905e-03
    Z_461_1_2  constraint1_4611  1
    Z_461_1_2  constraint2_4612  1
    Z_461_1_3  OBJ       -2.3973901593756916e-01
    Z_461_1_3  constraint1_4611  1
    Z_461_1_3  constraint2_4613  1
    Z_461_0_0  OBJ       -1.5822900397291412e-01
    Z_461_0_0  constraint1_4610  1
    Z_461_0_0  constraint2_4610  1
    Z_461_0_1  OBJ       -1.0530775192666228e-01
    Z_461_0_1  constraint1_4610  1
    Z_461_0_1  constraint2_4611  1
    Z_461_0_2  OBJ       -5.4204516847609300e-03
    Z_461_0_2  constraint1_4610  1
    Z_461_0_2  constraint2_4612  1
    Z_461_0_3  OBJ       -7.4092273737710301e-01
    Z_461_0_3  constraint1_4610  1
    Z_461_0_3  constraint2_4613  1
    Z_280_0_0  OBJ       -3.0641510013661100e-02
    Z_280_0_0  constraint1_2800  1
    Z_280_0_0  constraint2_2800  1
    Z_280_0_1  OBJ       -7.2699818754185219e-01
    Z_280_0_1  constraint1_2800  1
    Z_280_0_1  constraint2_2801  1
    Z_280_0_2  OBJ       -1.9836033267003606e-02
    Z_280_0_2  constraint1_2800  1
    Z_280_0_2  constraint2_2802  1
    Z_280_0_3  OBJ       -5.2759339017129300e-02
    Z_280_0_3  constraint1_2800  1
    Z_280_0_3  constraint2_2803  1
    Z_485_0_0  OBJ       -1.4345998450208664e-02
    Z_485_0_0  constraint1_4850  1
    Z_485_0_0  constraint2_4850  1
    Z_485_0_1  OBJ       -8.2933119489069851e-01
    Z_485_0_1  constraint1_4850  1
    Z_485_0_1  constraint2_4851  1
    Z_485_0_2  OBJ       -9.9685436645319484e-03
    Z_485_0_2  constraint1_4850  1
    Z_485_0_2  constraint2_4852  1
    Z_485_0_3  OBJ       -6.1284430162031889e-02
    Z_485_0_3  constraint1_4850  1
    Z_485_0_3  constraint2_4853  1
    Z_138_0_0  OBJ       -4.7332298386629938e-02
    Z_138_0_0  constraint1_1380  1
    Z_138_0_0  constraint2_1380  1
    Z_138_0_1  OBJ       -1.1496949059260933e-01
    Z_138_0_1  constraint1_1380  1
    Z_138_0_1  constraint2_1381  1
    Z_138_0_2  OBJ       -3.1885348112179933e-02
    Z_138_0_2  constraint1_1380  1
    Z_138_0_2  constraint2_1382  1
    Z_138_0_3  OBJ       -4.7941887364095978e-02
    Z_138_0_3  constraint1_1380  1
    Z_138_0_3  constraint2_1383  1
    Z_175_0_0  OBJ       -1.0656941880507803e-01
    Z_175_0_0  constraint1_1750  1
    Z_175_0_0  constraint2_1750  1
    Z_175_0_1  OBJ       -8.3575930811895571e-01
    Z_175_0_1  constraint1_1750  1
    Z_175_0_1  constraint2_1751  1
    Z_175_0_2  OBJ       -3.4537765202107720e-03
    Z_175_0_2  constraint1_1750  1
    Z_175_0_2  constraint2_1752  1
    Z_175_0_3  OBJ       -3.9826009346960414e-02
    Z_175_0_3  constraint1_1750  1
    Z_175_0_3  constraint2_1753  1
    Z_109_4_0  OBJ       -2.4555771811799465e-03
    Z_109_4_0  constraint1_1094  1
    Z_109_4_0  constraint2_1090  1
    Z_109_4_1  OBJ       -4.8273213881026289e-02
    Z_109_4_1  constraint1_1094  1
    Z_109_4_1  constraint2_1091  1
    Z_109_4_2  OBJ       -1.4635661573687236e-01
    Z_109_4_2  constraint1_1094  1
    Z_109_4_2  constraint2_1092  1
    Z_109_4_3  OBJ       -6.3200085463929898e-02
    Z_109_4_3  constraint1_1094  1
    Z_109_4_3  constraint2_1093  1
    Z_109_2_0  OBJ       -2.7468472616449271e-02
    Z_109_2_0  constraint1_1092  1
    Z_109_2_0  constraint2_1090  1
    Z_109_2_1  OBJ       -3.8750535062747574e-02
    Z_109_2_1  constraint1_1092  1
    Z_109_2_1  constraint2_1091  1
    Z_109_2_2  OBJ       -1.3101940804203139e-02
    Z_109_2_2  constraint1_1092  1
    Z_109_2_2  constraint2_1092  1
    Z_109_2_3  OBJ       -2.9612985228028091e-02
    Z_109_2_3  constraint1_1092  1
    Z_109_2_3  constraint2_1093  1
    Z_109_1_0  OBJ       -1.0779355215541353e-02
    Z_109_1_0  constraint1_1091  1
    Z_109_1_0  constraint2_1090  1
    Z_109_1_1  OBJ       -2.4453968606060084e-02
    Z_109_1_1  constraint1_1091  1
    Z_109_1_1  constraint2_1091  1
    Z_109_1_2  OBJ       -2.6575148965265662e-02
    Z_109_1_2  constraint1_1091  1
    Z_109_1_2  constraint2_1092  1
    Z_109_1_3  OBJ       -2.7293794590112854e-02
    Z_109_1_3  constraint1_1091  1
    Z_109_1_3  constraint2_1093  1
    Z_109_5_0  OBJ       -1.3189567260077853e-01
    Z_109_5_0  constraint1_1095  1
    Z_109_5_0  constraint2_1090  1
    Z_109_5_1  OBJ       -2.6329410370163114e-01
    Z_109_5_1  constraint1_1095  1
    Z_109_5_1  constraint2_1091  1
    Z_109_5_2  OBJ       -2.6012855848592743e-02
    Z_109_5_2  constraint1_1095  1
    Z_109_5_2  constraint2_1092  1
    Z_109_5_3  OBJ       -8.3004557250709210e-02
    Z_109_5_3  constraint1_1095  1
    Z_109_5_3  constraint2_1093  1
    Z_109_0_0  OBJ       -1.9897224026474475e-01
    Z_109_0_0  constraint1_1090  1
    Z_109_0_0  constraint2_1090  1
    Z_109_0_1  OBJ       -1.7280756920343099e-01
    Z_109_0_1  constraint1_1090  1
    Z_109_0_1  constraint2_1091  1
    Z_109_0_2  OBJ       -1.2947942906309419e-02
    Z_109_0_2  constraint1_1090  1
    Z_109_0_2  constraint2_1092  1
    Z_109_0_3  OBJ       -6.8678962912021552e-02
    Z_109_0_3  constraint1_1090  1
    Z_109_0_3  constraint2_1093  1
    Z_109_3_0  OBJ       -2.4555771811799465e-03
    Z_109_3_0  constraint1_1093  1
    Z_109_3_0  constraint2_1090  1
    Z_109_3_1  OBJ       -4.8273213881026289e-02
    Z_109_3_1  constraint1_1093  1
    Z_109_3_1  constraint2_1091  1
    Z_109_3_2  OBJ       -1.4635661573687236e-01
    Z_109_3_2  constraint1_1093  1
    Z_109_3_2  constraint2_1092  1
    Z_109_3_3  OBJ       -6.3200085463929898e-02
    Z_109_3_3  constraint1_1093  1
    Z_109_3_3  constraint2_1093  1
    Z_548_6_0  OBJ       -6.3713839604673222e-02
    Z_548_6_0  constraint1_5486  1
    Z_548_6_0  constraint2_5480  1
    Z_548_6_1  OBJ       -4.0398200311734765e-02
    Z_548_6_1  constraint1_5486  1
    Z_548_6_1  constraint2_5481  1
    Z_548_6_2  OBJ       -2.5529717251333905e-02
    Z_548_6_2  constraint1_5486  1
    Z_548_6_2  constraint2_5482  1
    Z_548_6_3  OBJ       -1.1694371240855150e-01
    Z_548_6_3  constraint1_5486  1
    Z_548_6_3  constraint2_5483  1
    Z_548_0_0  OBJ       -1.6330485932310457e-02
    Z_548_0_0  constraint1_5480  1
    Z_548_0_0  constraint2_5480  1
    Z_548_0_1  OBJ       -8.1341602311040748e-02
    Z_548_0_1  constraint1_5480  1
    Z_548_0_1  constraint2_5481  1
    Z_548_0_2  OBJ       -1.4680312202020496e-01
    Z_548_0_2  constraint1_5480  1
    Z_548_0_2  constraint2_5482  1
    Z_548_0_3  OBJ       -6.3670043414431332e-02
    Z_548_0_3  constraint1_5480  1
    Z_548_0_3  constraint2_5483  1
    Z_548_1_0  OBJ       -2.3510122358774154e-02
    Z_548_1_0  constraint1_5481  1
    Z_548_1_0  constraint2_5480  1
    Z_548_1_1  OBJ       -1.3618900628724814e-01
    Z_548_1_1  constraint1_5481  1
    Z_548_1_1  constraint2_5481  1
    Z_548_1_2  OBJ       -1.2771540294336503e-02
    Z_548_1_2  constraint1_5481  1
    Z_548_1_2  constraint2_5482  1
    Z_548_1_3  OBJ       -2.2713405815534823e-02
    Z_548_1_3  constraint1_5481  1
    Z_548_1_3  constraint2_5483  1
    Z_126_0_0  OBJ       -2.7156422789765444e-02
    Z_126_0_0  constraint1_1260  1
    Z_126_0_0  constraint2_1260  1
    Z_126_0_1  OBJ       -7.9500260197213313e-01
    Z_126_0_1  constraint1_1260  1
    Z_126_0_1  constraint2_1261  1
    Z_126_0_2  OBJ       -1.5486786169116041e-02
    Z_126_0_2  constraint1_1260  1
    Z_126_0_2  constraint2_1262  1
    Z_126_0_3  OBJ       -2.7292944266015767e-01
    Z_126_0_3  constraint1_1260  1
    Z_126_0_3  constraint2_1263  1
    MARKER    'MARKER'                 'INTEND'
RHS
    RHS1      constraint1_2170  1
    RHS1      constraint1_2710  1
    RHS1      constraint1_4612  1
    RHS1      constraint1_4611  1
    RHS1      constraint1_4610  1
    RHS1      constraint1_2800  1
    RHS1      constraint1_4850  1
    RHS1      constraint1_1380  1
    RHS1      constraint1_1750  1
    RHS1      constraint1_1094  1
    RHS1      constraint1_1092  1
    RHS1      constraint1_1091  1
    RHS1      constraint1_1095  1
    RHS1      constraint1_1090  1
    RHS1      constraint1_1093  1
    RHS1      constraint1_5486  1
    RHS1      constraint1_5480  1
    RHS1      constraint1_5481  1
    RHS1      constraint1_1260  1
    RHS1      constraint2_2170  1
    RHS1      constraint2_2171  1
    RHS1      constraint2_2172  1
    RHS1      constraint2_2173  1
    RHS1      constraint2_2710  1
    RHS1      constraint2_2711  1
    RHS1      constraint2_2712  1
    RHS1      constraint2_2713  1
    RHS1      constraint2_4610  1
    RHS1      constraint2_4611  1
    RHS1      constraint2_4612  1
    RHS1      constraint2_4613  1
    RHS1      constraint2_2800  1
    RHS1      constraint2_2801  1
    RHS1      constraint2_2802  1
    RHS1      constraint2_2803  1
    RHS1      constraint2_4850  1
    RHS1      constraint2_4851  1
    RHS1      constraint2_4852  1
    RHS1      constraint2_4853  1
    RHS1      constraint2_1380  1
    RHS1      constraint2_1381  1
    RHS1      constraint2_1382  1
    RHS1      constraint2_1383  1
    RHS1      constraint2_1750  1
    RHS1      constraint2_1751  1
    RHS1      constraint2_1752  1
    RHS1      constraint2_1753  1
    RHS1      constraint2_1090  1
    RHS1      constraint2_1091  1
    RHS1      constraint2_1092  1
    RHS1      constraint2_1093  1
    RHS1      constraint2_5480  1
    RHS1      constraint2_5481  1
    RHS1      constraint2_5482  1
    RHS1      constraint2_5483  1
    RHS1      constraint2_1260  1
    RHS1      constraint2_1261  1
    RHS1      constraint2_1262  1
    RHS1      constraint2_1263  1
BOUNDS
 UP BND1      Z_217_0_0  1
 UP BND1      Z_217_0_1  1
 UP BND1      Z_217_0_2  1
 UP BND1      Z_217_0_3  1
 UP BND1      Z_271_0_0  1
 UP BND1      Z_271_0_1  1
 UP BND1      Z_271_0_2  1
 UP BND1      Z_271_0_3  1
 UP BND1      Z_461_2_0  1
 UP BND1      Z_461_2_1  1
 UP BND1      Z_461_2_2  1
 UP BND1      Z_461_2_3  1
 UP BND1      Z_461_1_0  1
 UP BND1      Z_461_1_1  1
 UP BND1      Z_461_1_2  1
 UP BND1      Z_461_1_3  1
 UP BND1      Z_461_0_0  1
 UP BND1      Z_461_0_1  1
 UP BND1      Z_461_0_2  1
 UP BND1      Z_461_0_3  1
 UP BND1      Z_280_0_0  1
 UP BND1      Z_280_0_1  1
 UP BND1      Z_280_0_2  1
 UP BND1      Z_280_0_3  1
 UP BND1      Z_485_0_0  1
 UP BND1      Z_485_0_1  1
 UP BND1      Z_485_0_2  1
 UP BND1      Z_485_0_3  1
 UP BND1      Z_138_0_0  1
 UP BND1      Z_138_0_1  1
 UP BND1      Z_138_0_2  1
 UP BND1      Z_138_0_3  1
 UP BND1      Z_175_0_0  1
 UP BND1      Z_175_0_1  1
 UP BND1      Z_175_0_2  1
 UP BND1      Z_175_0_3  1
 UP BND1      Z_109_4_0  1
 UP BND1      Z_109_4_1  1
 UP BND1      Z_109_4_2  1
 UP BND1      Z_109_4_3  1
 UP BND1      Z_109_2_0  1
 UP BND1      Z_109_2_1  1
 UP BND1      Z_109_2_2  1
 UP BND1      Z_109_2_3  1
 UP BND1      Z_109_1_0  1
 UP BND1      Z_109_1_1  1
 UP BND1      Z_109_1_2  1
 UP BND1      Z_109_1_3  1
 UP BND1      Z_109_5_0  1
 UP BND1      Z_109_5_1  1
 UP BND1      Z_109_5_2  1
 UP BND1      Z_109_5_3  1
 UP BND1      Z_109_0_0  1
 UP BND1      Z_109_0_1  1
 UP BND1      Z_109_0_2  1
 UP BND1      Z_109_0_3  1
 UP BND1      Z_109_3_0  1
 UP BND1      Z_109_3_1  1
 UP BND1      Z_109_3_2  1
 UP BND1      Z_109_3_3  1
 UP BND1      Z_548_6_0  1
 UP BND1      Z_548_6_1  1
 UP BND1      Z_548_6_2  1
 UP BND1      Z_548_6_3  1
 UP BND1      Z_548_0_0  1
 UP BND1      Z_548_0_1  1
 UP BND1      Z_548_0_2  1
 UP BND1      Z_548_0_3  1
 UP BND1      Z_548_1_0  1
 UP BND1      Z_548_1_1  1
 UP BND1      Z_548_1_2  1
 UP BND1      Z_548_1_3  1
 UP BND1      Z_126_0_0  1
 UP BND1      Z_126_0_1  1
 UP BND1      Z_126_0_2  1
 UP BND1      Z_126_0_3  1
QUADOBJ
    Z_217_0_0  Z_271_0_0  -2.5545294092377029e-02
    Z_217_0_0  Z_461_2_0  -8.8888888888888871e-04
    Z_217_0_0  Z_280_0_0  -3.2298573366349365e-02
    Z_217_0_0  Z_485_0_0  -2.7404033240541463e-02
    Z_217_0_0  Z_138_0_0  -5.7823312131159276e-04
    Z_217_0_0  Z_109_4_0  -1.0598565879528159e-04
    Z_217_0_0  Z_109_5_0  -1.1413272352575145e-04
    Z_217_0_0  Z_109_3_0  -2.2151527725910322e-04
    Z_217_0_0  Z_548_0_0  -2.4137143220642743e-04
    Z_217_0_0  Z_548_1_0  -3.4675136968239394e-02
    Z_217_0_0  Z_126_0_0  -4.9251175495113014e-07
    Z_217_0_1  Z_271_0_1  -2.5545294092377029e-02
    Z_217_0_1  Z_461_2_1  -8.8888888888888871e-04
    Z_217_0_1  Z_280_0_1  -3.2298573366349365e-02
    Z_217_0_1  Z_485_0_1  -2.7404033240541463e-02
    Z_217_0_1  Z_138_0_1  -5.7823312131159276e-04
    Z_217_0_1  Z_109_4_1  -1.0598565879528159e-04
    Z_217_0_1  Z_109_5_1  -1.1413272352575145e-04
    Z_217_0_1  Z_109_3_1  -2.2151527725910322e-04
    Z_217_0_1  Z_548_0_1  -2.4137143220642743e-04
    Z_217_0_1  Z_548_1_1  -3.4675136968239394e-02
    Z_217_0_1  Z_126_0_1  -4.9251175495113014e-07
    Z_217_0_2  Z_271_0_2  -2.5545294092377029e-02
    Z_217_0_2  Z_461_2_2  -8.8888888888888871e-04
    Z_217_0_2  Z_280_0_2  -3.2298573366349365e-02
    Z_217_0_2  Z_485_0_2  -2.7404033240541463e-02
    Z_217_0_2  Z_138_0_2  -5.7823312131159276e-04
    Z_217_0_2  Z_109_4_2  -1.0598565879528159e-04
    Z_217_0_2  Z_109_5_2  -1.1413272352575145e-04
    Z_217_0_2  Z_109_3_2  -2.2151527725910322e-04
    Z_217_0_2  Z_548_0_2  -2.4137143220642743e-04
    Z_217_0_2  Z_548_1_2  -3.4675136968239394e-02
    Z_217_0_2  Z_126_0_2  -4.9251175495113014e-07
    Z_217_0_3  Z_271_0_3  -2.5545294092377029e-02
    Z_217_0_3  Z_461_2_3  -8.8888888888888871e-04
    Z_217_0_3  Z_280_0_3  -3.2298573366349365e-02
    Z_217_0_3  Z_485_0_3  -2.7404033240541463e-02
    Z_217_0_3  Z_138_0_3  -5.7823312131159276e-04
    Z_217_0_3  Z_109_4_3  -1.0598565879528159e-04
    Z_217_0_3  Z_109_5_3  -1.1413272352575145e-04
    Z_217_0_3  Z_109_3_3  -2.2151527725910322e-04
    Z_217_0_3  Z_548_0_3  -2.4137143220642743e-04
    Z_217_0_3  Z_548_1_3  -3.4675136968239394e-02
    Z_217_0_3  Z_126_0_3  -4.9251175495113014e-07
    Z_271_0_0  Z_280_0_0  -3.2298573366349365e-02
    Z_271_0_0  Z_485_0_0  -4.5785097225995837e-02
    Z_271_0_0  Z_138_0_0  -1.2047184245048677e-02
    Z_271_0_0  Z_548_1_0  -3.4979865731216170e-02
    Z_271_0_1  Z_280_0_1  -3.2298573366349365e-02
    Z_271_0_1  Z_485_0_1  -4.5785097225995837e-02
    Z_271_0_1  Z_138_0_1  -1.2047184245048677e-02
    Z_271_0_1  Z_548_1_1  -3.4979865731216170e-02
    Z_271_0_2  Z_280_0_2  -3.2298573366349365e-02
    Z_271_0_2  Z_485_0_2  -4.5785097225995837e-02
    Z_271_0_2  Z_138_0_2  -1.2047184245048677e-02
    Z_271_0_2  Z_548_1_2  -3.4979865731216170e-02
    Z_271_0_3  Z_280_0_3  -3.2298573366349365e-02
    Z_271_0_3  Z_485_0_3  -4.5785097225995837e-02
    Z_271_0_3  Z_138_0_3  -1.2047184245048677e-02
    Z_271_0_3  Z_548_1_3  -3.4979865731216170e-02
    Z_461_2_0  Z_138_0_0  -8.3634779460442683e-03
    Z_461_2_0  Z_109_5_0  -1.7999999999999995e-02
    Z_461_2_0  Z_109_0_0  -4.1322314049586770e-04
    Z_461_2_0  Z_109_3_0  -1.7999999999999995e-02
    Z_461_2_0  Z_548_0_0  -1.2799999999999996e-05
    Z_461_2_0  Z_548_1_0  -1.2799999999999996e-05
    Z_461_2_1  Z_138_0_1  -8.3634779460442683e-03
    Z_461_2_1  Z_109_5_1  -1.7999999999999995e-02
    Z_461_2_1  Z_109_0_1  -4.1322314049586770e-04
    Z_461_2_1  Z_109_3_1  -1.7999999999999995e-02
    Z_461_2_1  Z_548_0_1  -1.2799999999999996e-05
    Z_461_2_1  Z_548_1_1  -1.2799999999999996e-05
    Z_461_2_2  Z_138_0_2  -8.3634779460442683e-03
    Z_461_2_2  Z_109_5_2  -1.7999999999999995e-02
    Z_461_2_2  Z_109_0_2  -4.1322314049586770e-04
    Z_461_2_2  Z_109_3_2  -1.7999999999999995e-02
    Z_461_2_2  Z_548_0_2  -1.2799999999999996e-05
    Z_461_2_2  Z_548_1_2  -1.2799999999999996e-05
    Z_461_2_3  Z_138_0_3  -8.3634779460442683e-03
    Z_461_2_3  Z_109_5_3  -1.7999999999999995e-02
    Z_461_2_3  Z_109_0_3  -4.1322314049586770e-04
    Z_461_2_3  Z_109_3_3  -1.7999999999999995e-02
    Z_461_2_3  Z_548_0_3  -1.2799999999999996e-05
    Z_461_2_3  Z_548_1_3  -1.2799999999999996e-05
    Z_461_1_0  Z_485_0_0  -1.8108576289695418e-05
    Z_461_1_0  Z_138_0_0  -6.6487095772587695e-03
    Z_461_1_1  Z_485_0_1  -1.8108576289695418e-05
    Z_461_1_1  Z_138_0_1  -6.6487095772587695e-03
    Z_461_1_2  Z_485_0_2  -1.8108576289695418e-05
    Z_461_1_2  Z_138_0_2  -6.6487095772587695e-03
    Z_461_1_3  Z_485_0_3  -1.8108576289695418e-05
    Z_461_1_3  Z_138_0_3  -6.6487095772587695e-03
    Z_461_0_0  Z_109_0_0  -1.7586267195279066e-02
    Z_461_0_0  Z_109_3_0  -1.7586267195279066e-02
    Z_461_0_1  Z_109_0_1  -1.7586267195279066e-02
    Z_461_0_1  Z_109_3_1  -1.7586267195279066e-02
    Z_461_0_2  Z_109_0_2  -1.7586267195279066e-02
    Z_461_0_2  Z_109_3_2  -1.7586267195279066e-02
    Z_461_0_3  Z_109_0_3  -1.7586267195279066e-02
    Z_461_0_3  Z_109_3_3  -1.7586267195279066e-02
    Z_280_0_0  Z_485_0_0  -3.2298573366349365e-02
    Z_280_0_0  Z_548_1_0  -6.6181224285664642e-02
    Z_280_0_1  Z_485_0_1  -3.2298573366349365e-02
    Z_280_0_1  Z_548_1_1  -6.6181224285664642e-02
    Z_280_0_2  Z_485_0_2  -3.2298573366349365e-02
    Z_280_0_2  Z_548_1_2  -6.6181224285664642e-02
    Z_280_0_3  Z_485_0_3  -3.2298573366349365e-02
    Z_280_0_3  Z_548_1_3  -6.6181224285664642e-02
    Z_485_0_0  Z_138_0_0  -3.5842862216673749e-03
    Z_485_0_0  Z_175_0_0  -9.6028553779362064e-02
    Z_485_0_0  Z_548_1_0  -3.5291862558355612e-02
    Z_485_0_0  Z_126_0_0  -9.2750020940849916e-05
    Z_485_0_1  Z_138_0_1  -3.5842862216673749e-03
    Z_485_0_1  Z_175_0_1  -9.6028553779362064e-02
    Z_485_0_1  Z_548_1_1  -3.5291862558355612e-02
    Z_485_0_1  Z_126_0_1  -9.2750020940849916e-05
    Z_485_0_2  Z_138_0_2  -3.5842862216673749e-03
    Z_485_0_2  Z_175_0_2  -9.6028553779362064e-02
    Z_485_0_2  Z_548_1_2  -3.5291862558355612e-02
    Z_485_0_2  Z_126_0_2  -9.2750020940849916e-05
    Z_485_0_3  Z_138_0_3  -3.5842862216673749e-03
    Z_485_0_3  Z_175_0_3  -9.6028553779362064e-02
    Z_485_0_3  Z_548_1_3  -3.5291862558355612e-02
    Z_485_0_3  Z_126_0_3  -9.2750020940849916e-05
    Z_138_0_0  Z_109_4_0  -5.9803779679892832e-04
    Z_138_0_0  Z_109_5_0  -6.8818295456013617e-03
    Z_138_0_0  Z_109_3_0  -6.8818295456013617e-03
    Z_138_0_0  Z_548_0_0  -2.9508301973032117e-03
    Z_138_0_0  Z_548_1_0  -3.5842862216673749e-03
    Z_138_0_0  Z_126_0_0  -1.3573628295071717e-03
    Z_138_0_1  Z_109_4_1  -5.9803779679892832e-04
    Z_138_0_1  Z_109_5_1  -6.8818295456013617e-03
    Z_138_0_1  Z_109_3_1  -6.8818295456013617e-03
    Z_138_0_1  Z_548_0_1  -2.9508301973032117e-03
    Z_138_0_1  Z_548_1_1  -3.5842862216673749e-03
    Z_138_0_1  Z_126_0_1  -1.3573628295071717e-03
    Z_138_0_2  Z_109_4_2  -5.9803779679892832e-04
    Z_138_0_2  Z_109_5_2  -6.8818295456013617e-03
    Z_138_0_2  Z_109_3_2  -6.8818295456013617e-03
    Z_138_0_2  Z_548_0_2  -2.9508301973032117e-03
    Z_138_0_2  Z_548_1_2  -3.5842862216673749e-03
    Z_138_0_2  Z_126_0_2  -1.3573628295071717e-03
    Z_138_0_3  Z_109_4_3  -5.9803779679892832e-04
    Z_138_0_3  Z_109_5_3  -6.8818295456013617e-03
    Z_138_0_3  Z_109_3_3  -6.8818295456013617e-03
    Z_138_0_3  Z_548_0_3  -2.9508301973032117e-03
    Z_138_0_3  Z_548_1_3  -3.5842862216673749e-03
    Z_138_0_3  Z_126_0_3  -1.3573628295071717e-03
    Z_109_4_0  Z_126_0_0  -4.8513966744102705e-10
    Z_109_4_1  Z_126_0_1  -4.8513966744102705e-10
    Z_109_4_2  Z_126_0_2  -4.8513966744102705e-10
    Z_109_4_3  Z_126_0_3  -4.8513966744102705e-10
    Z_109_2_0  Z_548_1_0  -1.9999999999999996e-01
    Z_109_2_1  Z_548_1_1  -1.9999999999999996e-01
    Z_109_2_2  Z_548_1_2  -1.9999999999999996e-01
    Z_109_2_3  Z_548_1_3  -1.9999999999999996e-01
    Z_109_5_0  Z_548_6_0  -1.0790422375621094e-03
    Z_109_5_1  Z_548_6_1  -1.0790422375621094e-03
    Z_109_5_2  Z_548_6_2  -1.0790422375621094e-03
    Z_109_5_3  Z_548_6_3  -1.0790422375621094e-03
    Z_109_3_0  Z_548_6_0  -6.0946442800696948e-04
    Z_109_3_0  Z_126_0_0  -8.0597417279271736e-11
    Z_109_3_1  Z_548_6_1  -6.0946442800696948e-04
    Z_109_3_1  Z_126_0_1  -8.0597417279271736e-11
    Z_109_3_2  Z_548_6_2  -6.0946442800696948e-04
    Z_109_3_2  Z_126_0_2  -8.0597417279271736e-11
    Z_109_3_3  Z_548_6_3  -6.0946442800696948e-04
    Z_109_3_3  Z_126_0_3  -8.0597417279271736e-11
    Z_548_1_0  Z_126_0_0  -2.6199251617364314e-06
    Z_548_1_1  Z_126_0_1  -2.6199251617364314e-06
    Z_548_1_2  Z_126_0_2  -2.6199251617364314e-06
    Z_548_1_3  Z_126_0_3  -2.6199251617364314e-06
ENDATA
