ilp_joint/output/condensation_ilp.sol
# Solution for model condensation_srl_ilp
# Objective value = 7.2479483523974926e+00
Z_348_0_0 0
Z_348_0_1 0
Z_348_0_2 0
Z_348_0_3 0
Z_348_0_4 1
Z_478_0_0 0
Z_478_0_1 1
Z_478_0_2 0
Z_478_0_3 0
Z_478_0_4 0
Z_478_3_0 0
Z_478_3_1 0
Z_478_3_2 0
Z_478_3_3 0
Z_478_3_4 1
Z_478_2_0 0
Z_478_2_1 0
Z_478_2_2 0
Z_478_2_3 0
Z_478_2_4 1
Z_478_6_0 0
Z_478_6_1 0
Z_478_6_2 0
Z_478_6_3 0
Z_478_6_4 1
Z_478_7_0 0
Z_478_7_1 0
Z_478_7_2 0
Z_478_7_3 0
Z_478_7_4 1
Z_478_1_0 0
Z_478_1_1 0
Z_478_1_2 0
Z_478_1_3 0
Z_478_1_4 1
Z_478_8_0 0
Z_478_8_1 0
Z_478_8_2 0
Z_478_8_3 0
Z_478_8_4 1
Z_478_5_0 0
Z_478_5_1 0
Z_478_5_2 0
Z_478_5_3 0
Z_478_5_4 1
Z_478_4_0 0
Z_478_4_1 0
Z_478_4_2 0
Z_478_4_3 0
Z_478_4_4 1
